n_res = 5;
rcap = [16, 17, 79, 72, 87];
rtype = [1, 1, 2, 2, 2];
n_tasks = 16;
modes = [ {1, 2, 3}, {4, 5, 6}, {7, 8, 9}, {10, 11, 12}, {13, 14, 15}, {16, 17, 18}, {19, 20, 21}, {22, 23, 24}, {25, 26, 27}, {28, 29, 30}, {31, 32, 33}, {34, 35, 36}, {37, 38, 39}, {40, 41, 42}, {43, 44, 45}, {46, 47, 48} ];
succ = [ {11, 15}, {4, 5, 9}, {7, 11}, {6, 8, 11}, {7, 10, 13}, {10, 12}, {8, 16}, {14, 15}, {10, 16}, {14}, {13}, {13, 15}, {14, 16}, {}, {}, {} ];
n_opt = 48;
dur = [2, 4, 6, 1, 3, 8, 3, 7, 9, 3, 9, 10, 3, 9, 10, 1, 3, 9, 4, 4, 9, 4, 7, 10, 3, 4, 8, 4, 7, 8, 3, 5, 9, 1, 5, 10, 9, 10, 10, 8, 8, 10, 3, 6, 7, 5, 7, 8];
rreq = [|  6,  5,  5,  7,  7,  5,  9,  6,  6,  7,  5,  3,  9,  7,  6,  6,  3,  2, 10,  8,  8,  7,  7,  7,  8,  8,  6,  3,  3,  2,  3,  2,  2,  7,  6,  5,  8,  7,  7,  8,  8,  7,  8,  4,  4,  9,  8,  8
        |  8,  3,  3,  8,  4,  4, 10, 10,  9,  5,  5,  4,  8,  7,  7,  8,  6,  1,  9,  9,  9,  7,  7,  7,  9,  7,  7,  6,  4,  2,  7,  7,  7,  5,  4,  4,  6,  3,  4,  7,  8,  6,  6,  5,  5,  5,  4,  4
        |  8,  4,  3,  7,  5,  1,  9,  7,  1,  8,  8,  7,  7,  5,  4,  9,  8,  6, 10,  6,  1,  7,  6,  4,  6,  4,  3,  6,  4,  2,  9,  9,  8,  8,  8,  8,  4,  4,  4,  6,  7,  5,  2,  2,  2,  9,  8,  8
        |  3,  3,  2,  4,  4,  3,  9,  8,  8,  4,  2,  2,  5,  2,  2,  5,  5,  4,  5,  4,  3,  6,  3,  1,  5,  5,  4,  9,  9,  8,  8,  7,  5,  3,  3,  1,  4,  3,  2, 10, 10,  9,  6,  6,  4,  7,  7,  7
        |  7,  6,  4, 10, 10,  9, 10,  9,  7,  5,  5,  5, 10,  9,  7,  8,  4,  4,  3,  4,  1,  6,  6,  6, 10,  7,  4,  3,  2,  2,  8,  6,  5,  9,  4,  2,  5,  2,  2, 10,  9,  8,  9,  9,  7,  7,  5,  2 |];
